(set-logic QF_UF)
(declare-fun car () Bool)
(declare-fun circuit () Bool)
(declare-fun clk () Bool)
(declare-fun prt () Bool)
(assert (= (= (not (not car)) car) (= car (not (not car)))))
(assert (= (= car (not (not car))) true))
(assert (not (= (= (not (not car)) car) true)))
(check-sat)
(exit)
